certificates/rado_a14_c10_N79.cnf
c Rad2 upper bound instance: x1 + 14*x2 - x3 = 10, interval [1,79]
p cnf 79 480
1 5 0
-1 -5 0
1 2 19 0
-1 -2 -19 0
1 3 33 0
-1 -3 -33 0
1 4 47 0
-1 -4 -47 0
1 5 61 0
-1 -5 -61 0
1 6 75 0
-1 -6 -75 0
1 2 6 0
-1 -2 -6 0
2 20 0
-2 -20 0
2 3 34 0
-2 -3 -34 0
2 4 48 0
-2 -4 -48 0
2 5 62 0
-2 -5 -62 0
2 6 76 0
-2 -6 -76 0
1 3 7 0
-1 -3 -7 0
2 3 21 0
-2 -3 -21 0
3 35 0
-3 -35 0
3 4 49 0
-3 -4 -49 0
3 5 63 0
-3 -5 -63 0
3 6 77 0
-3 -6 -77 0
1 4 8 0
-1 -4 -8 0
2 4 22 0
-2 -4 -22 0
3 4 36 0
-3 -4 -36 0
4 50 0
-4 -50 0
4 5 64 0
-4 -5 -64 0
4 6 78 0
-4 -6 -78 0
1 5 9 0
-1 -5 -9 0
2 5 23 0
-2 -5 -23 0
3 5 37 0
-3 -5 -37 0
4 5 51 0
-4 -5 -51 0
5 65 0
-5 -65 0
5 6 79 0
-5 -6 -79 0
1 6 10 0
-1 -6 -10 0
2 6 24 0
-2 -6 -24 0
3 6 38 0
-3 -6 -38 0
4 6 52 0
-4 -6 -52 0
5 6 66 0
-5 -6 -66 0
1 7 11 0
-1 -7 -11 0
2 7 25 0
-2 -7 -25 0
3 7 39 0
-3 -7 -39 0
4 7 53 0
-4 -7 -53 0
5 7 67 0
-5 -7 -67 0
1 8 12 0
-1 -8 -12 0
2 8 26 0
-2 -8 -26 0
3 8 40 0
-3 -8 -40 0
4 8 54 0
-4 -8 -54 0
5 8 68 0
-5 -8 -68 0
1 9 13 0
-1 -9 -13 0
2 9 27 0
-2 -9 -27 0
3 9 41 0
-3 -9 -41 0
4 9 55 0
-4 -9 -55 0
5 9 69 0
-5 -9 -69 0
1 10 14 0
-1 -10 -14 0
2 10 28 0
-2 -10 -28 0
3 10 42 0
-3 -10 -42 0
4 10 56 0
-4 -10 -56 0
5 10 70 0
-5 -10 -70 0
1 11 15 0
-1 -11 -15 0
2 11 29 0
-2 -11 -29 0
3 11 43 0
-3 -11 -43 0
4 11 57 0
-4 -11 -57 0
5 11 71 0
-5 -11 -71 0
1 12 16 0
-1 -12 -16 0
2 12 30 0
-2 -12 -30 0
3 12 44 0
-3 -12 -44 0
4 12 58 0
-4 -12 -58 0
5 12 72 0
-5 -12 -72 0
1 13 17 0
-1 -13 -17 0
2 13 31 0
-2 -13 -31 0
3 13 45 0
-3 -13 -45 0
4 13 59 0
-4 -13 -59 0
5 13 73 0
-5 -13 -73 0
1 14 18 0
-1 -14 -18 0
2 14 32 0
-2 -14 -32 0
3 14 46 0
-3 -14 -46 0
4 14 60 0
-4 -14 -60 0
5 14 74 0
-5 -14 -74 0
1 15 19 0
-1 -15 -19 0
2 15 33 0
-2 -15 -33 0
3 15 47 0
-3 -15 -47 0
4 15 61 0
-4 -15 -61 0
5 15 75 0
-5 -15 -75 0
1 16 20 0
-1 -16 -20 0
2 16 34 0
-2 -16 -34 0
3 16 48 0
-3 -16 -48 0
4 16 62 0
-4 -16 -62 0
5 16 76 0
-5 -16 -76 0
1 17 21 0
-1 -17 -21 0
2 17 35 0
-2 -17 -35 0
3 17 49 0
-3 -17 -49 0
4 17 63 0
-4 -17 -63 0
5 17 77 0
-5 -17 -77 0
1 18 22 0
-1 -18 -22 0
2 18 36 0
-2 -18 -36 0
3 18 50 0
-3 -18 -50 0
4 18 64 0
-4 -18 -64 0
5 18 78 0
-5 -18 -78 0
1 19 23 0
-1 -19 -23 0
2 19 37 0
-2 -19 -37 0
3 19 51 0
-3 -19 -51 0
4 19 65 0
-4 -19 -65 0
5 19 79 0
-5 -19 -79 0
1 20 24 0
-1 -20 -24 0
2 20 38 0
-2 -20 -38 0
3 20 52 0
-3 -20 -52 0
4 20 66 0
-4 -20 -66 0
1 21 25 0
-1 -21 -25 0
2 21 39 0
-2 -21 -39 0
3 21 53 0
-3 -21 -53 0
4 21 67 0
-4 -21 -67 0
1 22 26 0
-1 -22 -26 0
2 22 40 0
-2 -22 -40 0
3 22 54 0
-3 -22 -54 0
4 22 68 0
-4 -22 -68 0
1 23 27 0
-1 -23 -27 0
2 23 41 0
-2 -23 -41 0
3 23 55 0
-3 -23 -55 0
4 23 69 0
-4 -23 -69 0
1 24 28 0
-1 -24 -28 0
2 24 42 0
-2 -24 -42 0
3 24 56 0
-3 -24 -56 0
4 24 70 0
-4 -24 -70 0
1 25 29 0
-1 -25 -29 0
2 25 43 0
-2 -25 -43 0
3 25 57 0
-3 -25 -57 0
4 25 71 0
-4 -25 -71 0
1 26 30 0
-1 -26 -30 0
2 26 44 0
-2 -26 -44 0
3 26 58 0
-3 -26 -58 0
4 26 72 0
-4 -26 -72 0
1 27 31 0
-1 -27 -31 0
2 27 45 0
-2 -27 -45 0
3 27 59 0
-3 -27 -59 0
4 27 73 0
-4 -27 -73 0
1 28 32 0
-1 -28 -32 0
2 28 46 0
-2 -28 -46 0
3 28 60 0
-3 -28 -60 0
4 28 74 0
-4 -28 -74 0
1 29 33 0
-1 -29 -33 0
2 29 47 0
-2 -29 -47 0
3 29 61 0
-3 -29 -61 0
4 29 75 0
-4 -29 -75 0
1 30 34 0
-1 -30 -34 0
2 30 48 0
-2 -30 -48 0
3 30 62 0
-3 -30 -62 0
4 30 76 0
-4 -30 -76 0
1 31 35 0
-1 -31 -35 0
2 31 49 0
-2 -31 -49 0
3 31 63 0
-3 -31 -63 0
4 31 77 0
-4 -31 -77 0
1 32 36 0
-1 -32 -36 0
2 32 50 0
-2 -32 -50 0
3 32 64 0
-3 -32 -64 0
4 32 78 0
-4 -32 -78 0
1 33 37 0
-1 -33 -37 0
2 33 51 0
-2 -33 -51 0
3 33 65 0
-3 -33 -65 0
4 33 79 0
-4 -33 -79 0
1 34 38 0
-1 -34 -38 0
2 34 52 0
-2 -34 -52 0
3 34 66 0
-3 -34 -66 0
1 35 39 0
-1 -35 -39 0
2 35 53 0
-2 -35 -53 0
3 35 67 0
-3 -35 -67 0
1 36 40 0
-1 -36 -40 0
2 36 54 0
-2 -36 -54 0
3 36 68 0
-3 -36 -68 0
1 37 41 0
-1 -37 -41 0
2 37 55 0
-2 -37 -55 0
3 37 69 0
-3 -37 -69 0
1 38 42 0
-1 -38 -42 0
2 38 56 0
-2 -38 -56 0
3 38 70 0
-3 -38 -70 0
1 39 43 0
-1 -39 -43 0
2 39 57 0
-2 -39 -57 0
3 39 71 0
-3 -39 -71 0
1 40 44 0
-1 -40 -44 0
2 40 58 0
-2 -40 -58 0
3 40 72 0
-3 -40 -72 0
1 41 45 0
-1 -41 -45 0
2 41 59 0
-2 -41 -59 0
3 41 73 0
-3 -41 -73 0
1 42 46 0
-1 -42 -46 0
2 42 60 0
-2 -42 -60 0
3 42 74 0
-3 -42 -74 0
1 43 47 0
-1 -43 -47 0
2 43 61 0
-2 -43 -61 0
3 43 75 0
-3 -43 -75 0
1 44 48 0
-1 -44 -48 0
2 44 62 0
-2 -44 -62 0
3 44 76 0
-3 -44 -76 0
1 45 49 0
-1 -45 -49 0
2 45 63 0
-2 -45 -63 0
3 45 77 0
-3 -45 -77 0
1 46 50 0
-1 -46 -50 0
2 46 64 0
-2 -46 -64 0
3 46 78 0
-3 -46 -78 0
1 47 51 0
-1 -47 -51 0
2 47 65 0
-2 -47 -65 0
3 47 79 0
-3 -47 -79 0
1 48 52 0
-1 -48 -52 0
2 48 66 0
-2 -48 -66 0
1 49 53 0
-1 -49 -53 0
2 49 67 0
-2 -49 -67 0
1 50 54 0
-1 -50 -54 0
2 50 68 0
-2 -50 -68 0
1 51 55 0
-1 -51 -55 0
2 51 69 0
-2 -51 -69 0
1 52 56 0
-1 -52 -56 0
2 52 70 0
-2 -52 -70 0
1 53 57 0
-1 -53 -57 0
2 53 71 0
-2 -53 -71 0
1 54 58 0
-1 -54 -58 0
2 54 72 0
-2 -54 -72 0
1 55 59 0
-1 -55 -59 0
2 55 73 0
-2 -55 -73 0
1 56 60 0
-1 -56 -60 0
2 56 74 0
-2 -56 -74 0
1 57 61 0
-1 -57 -61 0
2 57 75 0
-2 -57 -75 0
1 58 62 0
-1 -58 -62 0
2 58 76 0
-2 -58 -76 0
1 59 63 0
-1 -59 -63 0
2 59 77 0
-2 -59 -77 0
1 60 64 0
-1 -60 -64 0
2 60 78 0
-2 -60 -78 0
1 61 65 0
-1 -61 -65 0
2 61 79 0
-2 -61 -79 0
1 62 66 0
-1 -62 -66 0
1 63 67 0
-1 -63 -67 0
1 64 68 0
-1 -64 -68 0
1 65 69 0
-1 -65 -69 0
1 66 70 0
-1 -66 -70 0
1 67 71 0
-1 -67 -71 0
1 68 72 0
-1 -68 -72 0
1 69 73 0
-1 -69 -73 0
1 70 74 0
-1 -70 -74 0
1 71 75 0
-1 -71 -75 0
1 72 76 0
-1 -72 -76 0
1 73 77 0
-1 -73 -77 0
1 74 78 0
-1 -74 -78 0
1 75 79 0
-1 -75 -79 0
