certificates/rado_a14_c10_N79.drat
-75 -79 0
d -75 -1 -79 0
15 19 75 0
-5 -79 0
-79 0
75 0
5 0
-1 0
-65 0
-15 0
69 0
61 0
19 0
11 0
-9 0
-71 0
13 0
67 0
-73 0
-7 0
77 0
3 0
-17 0
-35 0
-63 0
-6 0
-37 0
-45 0
-51 0
-29 0
-43 0
21 0
39 0
31 0
2 0
59 0
4 0
10 0
41 0
33 0
49 0
55 0
47 0
25 0
0
